Solving original (integer) problem with strategy gdp.hull_exact...
--- Job model.gms Start 02/14/26 22:10:49 52.2.0 d8e408be LEX-LEG x86 64bit/Linux
--- Applying:
    /package/gams/52.2/gmsprmun.txt
--- GAMS Parameters defined
    Input /local/scratch/a/sgusev/repos/k_means/data/gams_gurobi_gdp.hull_exact/no_mode/2026-02-14_22-10-48/original/model.gms
    Output /local/scratch/a/sgusev/repos/k_means/data/gams_gurobi_gdp.hull_exact/no_mode/2026-02-14_22-10-48/original/output.lst
    ScrDir /local/scratch/a/sgusev/repos/k_means/data/gams_gurobi_gdp.hull_exact/no_mode/2026-02-14_22-10-48/original/225a/
    SysDir /package/gams/52.2/
    CurDir /local/scratch/a/sgusev/repos/k_means/data/gams_gurobi_gdp.hull_exact/no_mode/2026-02-14_22-10-48/original/
    LogOption 3
    AppendLog 1
Licensee: David Bernal / SECQUOIA Research Group         G251008+0003Ac-GEN
          Purdue University, Davidson School of Chemical EngineeringDCE4838
          225a/gamslice.dat
          5a82958a-fbca-4a23
          node:66820903 mem:995 cores:48 ipport:42415 v:2                  
          Evaluation license: Not for commercial or production use
          The time-limited license stops working on : Jun 30, 2027
System information: 48 physical cores and 995 Gb physical memory detected
GAMS 52.2.0   Copyright (C) 1987-2025 GAMS Development. All rights reserved
--- Starting compilation
--- model.gms(2653) 2 Mb
--- $echo File /local/scratch/a/sgusev/repos/k_means/data/gams_gurobi_gdp.hull_exact/no_mode/2026-02-14_22-10-48/original/gurobi.opt
--- model.gms(3932) 2 Mb
--- Starting execution: elapsed 0:00:00.015
--- model.gms(2662) 3 Mb
--- Generating MINLP model GAMS_MODEL
--- model.gms(2666) 5 Mb
---   804 rows  409 columns  1,959 non-zeroes
---   1,344 nl-code  256 nl-non-zeroes
---   64 discrete-columns
--- Range statistics (absolute non-zero finite values)
--- RHS       [min, max] : [ 1.000E+00, 1.000E+00] - Zero values observed as well
--- Bound     [min, max] : [ 1.000E+00, 6.400E+01] - Zero values observed as well
--- Matrix    [min, max] : [ 1.000E+00, 6.400E+01] - Zero values observed as well
--- model.gms(2666) 3 Mb
--- Executing GUROBI (Solvelink=5): elapsed 0:00:00.020
Reading parameter(s) from "/local/scratch/a/sgusev/repos/k_means/data/gams_gurobi_gdp.hull_exact/no_mode/2026-02-14_22-10-48/original/gurobi.opt"
>>  NonConvex 2
>>  Threads 1
>>  MIPGap 1e-06
>>  MIPGapAbs 1e-10
>>  FeasibilityTol 1e-06
>>  OptimalityTol 1e-06
>>  IntFeasTol 1e-05
Finished reading from "/local/scratch/a/sgusev/repos/k_means/data/gams_gurobi_gdp.hull_exact/no_mode/2026-02-14_22-10-48/original/gurobi.opt"

... GRB_LICENSE_FILE = /local/scratch/a/sgusev/gurobi.lic

    Gurobi           52.2.0 d8e408be Dec 8, 2025           LEG x86 64bit/Linux    

... GAMS/Gurobi Link license.
... GMO Q Extraction (ThreePass): 0.00s

    Gurobi Optimizer version 13.0.0 build v13.0.0rc1 (linux64 - "Oracle Linux Server 9.7")
    
    CPU model: AMD EPYC 7643 48-Core Processor, instruction set [SSE2|AVX|AVX2]
    Thread count: 48 physical cores, 96 logical processors, using up to 1 threads
    
    Non-default parameters:
    TimeLimit  300
    MIPGap  1e-06
    LogToConsole  0
    NonConvex  2
    Threads  1
    
    Optimize a model with 739 rows, 408 columns and 1686 nonzeros (Min)
    Model fingerprint: 0x0191f52b
    Model has 16 linear objective coefficients
    Model has 64 quadratic constraints
    Variable types: 344 continuous, 64 integer (0 binary)
    Coefficient statistics:
      Matrix range     [1e+00, 6e+01]
      QMatrix range    [4e-02, 2e+00]
      Objective range  [1e+00, 1e+00]
      Bounds range     [1e+00, 6e+01]
      RHS range        [1e+00, 1e+00]
    Presolve removed 128 rows and 144 columns
    Presolve time: 0.01s
    Presolved: 1003 rows, 584 columns, 2638 nonzeros
    Presolved model has 128 quadratic constraint(s)
    Variable types: 520 continuous, 64 integer (64 binary)
    
    Root relaxation: objective 0.000000e+00, 244 iterations, 0.00 seconds (0.00 work units)
    
        Nodes    |    Current Node    |     Objective Bounds      |     Work
     Expl Unexpl |  Obj  Depth IntInf | Incumbent    BestBd   Gap | It/Node Time
    
    H    0     0                       2.6048562    0.00000   100%     -    0s
    *    0     0               0       2.6048562    0.00000   100%     -    0s
         0     0    0.00000    0   16    2.60486    0.00000   100%     -    0s
         0     0    0.00000    0   24    2.60486    0.00000   100%     -    0s
    H    0     0                       2.3429355    0.00000   100%     -    0s
         0     0    0.00000    0   28    2.34294    0.00000   100%     -    0s
         0     0    0.00000    0   30    2.34294    0.00000   100%     -    0s
         0     0    0.00000    0   30    2.34294    0.00000   100%     -    0s
         0     0    0.00000    0    8    2.34294    0.00000   100%     -    0s
         0     0    0.00000    0    8    2.34294    0.00000   100%     -    0s
         0     0    0.00000    0   24    2.34294    0.00000   100%     -    0s
         0     0    0.00000    0   22    2.34294    0.00000   100%     -    0s
         0     0    0.00000    0   20    2.34294    0.00000   100%     -    0s
         0     0    0.00000    0   20    2.34294    0.00000   100%     -    0s
         0     0    0.00000    0   22    2.34294    0.00000   100%     -    0s
         0     0    0.00000    0   20    2.34294    0.00000   100%     -    0s
         0     0    0.00000    0   22    2.34294    0.00000   100%     -    0s
         0     0    0.00000    0   16    2.34294    0.00000   100%     -    0s
         0     0    0.00000    0   20    2.34294    0.00000   100%     -    0s
         0     0    0.00000    0   20    2.34294    0.00000   100%     -    0s
         0     0    0.00000    0   22    2.34294    0.00000   100%     -    0s
         0     0    0.00000    0   20    2.34294    0.00000   100%     -    0s
         0     0    0.00000    0   22    2.34294    0.00000   100%     -    0s
         0     0    0.00000    0   16    2.34294    0.00000   100%     -    0s
         0     0    0.00000    0   24    2.34294    0.00000   100%     -    0s
         0     0    0.00000    0   24    2.34294    0.00000   100%     -    0s
         0     0    0.00000    0   25    2.34294    0.00000   100%     -    0s
         0     0    0.00000    0   25    2.34294    0.00000   100%     -    0s
         0     0    0.00000    0   26    2.34294    0.00000   100%     -    0s
         0     0    0.00000    0   24    2.34294    0.00000   100%     -    0s
         0     0    0.00000    0   23    2.34294    0.00000   100%     -    0s
         0     0    0.00000    0   23    2.34294    0.00000   100%     -    0s
         0     0    0.00000    0   22    2.34294    0.00000   100%     -    0s
         0     0    0.00000    0   16    2.34294    0.00000   100%     -    0s
         0     0    0.00000    0   23    2.34294    0.00000   100%     -    0s
         0     0    0.00000    0   20    2.34294    0.00000   100%     -    0s
         0     0    0.00000    0   18    2.34294    0.00000   100%     -    0s
         0     0    0.00000    0   18    2.34294    0.00000   100%     -    0s
         0     0    0.00000    0   20    2.34294    0.00000   100%     -    0s
         0     0    0.00000    0   20    2.34294    0.00000   100%     -    0s
         0     0    0.00000    0   24    2.34294    0.00000   100%     -    0s
         0     0    0.00000    0   14    2.34294    0.00000   100%     -    0s
         0     0    0.00000    0   22    2.34294    0.00000   100%     -    0s
         0     0    0.00000    0   14    2.34294    0.00000   100%     -    0s
         0     0    0.00000    0   28    2.34294    0.00000   100%     -    0s
         0     0    0.00000    0   26    2.34294    0.00000   100%     -    0s
         0     0    0.00000    0   26    2.34294    0.00000   100%     -    0s
         0     0    0.00000    0   26    2.34294    0.00000   100%     -    0s
         0     0    0.00000    0   26    2.34294    0.00000   100%     -    0s
         0     0    0.00000    0   26    2.34294    0.00000   100%     -    0s
         0     0    0.00000    0   26    2.34294    0.00000   100%     -    0s
         0     0    0.00000    0   26    2.34294    0.00000   100%     -    0s
         0     0    0.00000    0   26    2.34294    0.00000   100%     -    0s
         0     0    0.00000    0   14    2.34294    0.00000   100%     -    0s
         0     0    0.00000    0   24    2.34294    0.00000   100%     -    0s
         0     0    0.00000    0   24    2.34294    0.00000   100%     -    0s
         0     0    0.00000    0   28    2.34294    0.00000   100%     -    0s
         0     0    0.00000    0   22    2.34294    0.00000   100%     -    0s
         0     0    0.00000    0   16    2.34294    0.00000   100%     -    0s
         0     0    0.00000    0   16    2.34294    0.00000   100%     -    0s
         0     0    0.00000    0   24    2.34294    0.00000   100%     -    0s
         0     0    0.00000    0   22    2.34294    0.00000   100%     -    0s
         0     0    0.00000    0   25    2.34294    0.00000   100%     -    0s
         0     0    0.00000    0   20    2.34294    0.00000   100%     -    0s
         0     0    0.00000    0   20    2.34294    0.00000   100%     -    0s
         0     0    0.00000    0   20    2.34294    0.00000   100%     -    0s
         0     0    0.00000    0   22    2.34294    0.00000   100%     -    0s
         0     0    0.00000    0   18    2.34294    0.00000   100%     -    0s
         0     0    0.00000    0   27    2.34294    0.00000   100%     -    0s
         0     0    0.00000    0   22    2.34294    0.00000   100%     -    0s
         0     0    0.00000    0   26    2.34294    0.00000   100%     -    0s
         0     0    0.00000    0   26    2.34294    0.00000   100%     -    0s
         0     0    0.00000    0   24    2.34294    0.00000   100%     -    0s
         0     0    0.00000    0   17    2.34294    0.00000   100%     -    0s
         0     0    0.00000    0   26    2.34294    0.00000   100%     -    0s
         0     0    0.00000    0   16    2.34294    0.00000   100%     -    0s
         0     0    0.00000    0   22    2.34294    0.00000   100%     -    0s
         0     0    0.00000    0   20    2.34294    0.00000   100%     -    0s
         0     0    0.00000    0   22    2.34294    0.00000   100%     -    0s
         0     0    0.00000    0   18    2.34294    0.00000   100%     -    0s
         0     0    0.00000    0   22    2.34294    0.00000   100%     -    0s
         0     0    0.00000    0   22    2.34294    0.00000   100%     -    0s
         0     0    0.00000    0   24    2.34294    0.00000   100%     -    0s
         0     0    0.00000    0   14    2.34294    0.00000   100%     -    0s
         0     0    0.00000    0   23    2.34294    0.00000   100%     -    0s
         0     0    0.00000    0   16    2.34294    0.00000   100%     -    0s
         0     0    0.00000    0   22    2.34294    0.00000   100%     -    0s
         0     0    0.00000    0   16    2.34294    0.00000   100%     -    0s
         0     0    0.00000    0   22    2.34294    0.00000   100%     -    0s
         0     0    0.00000    0   14    2.34294    0.00000   100%     -    0s
         0     0    0.00000    0   18    2.34294    0.00000   100%     -    0s
         0     0    0.00000    0   18    2.34294    0.00000   100%     -    0s
         0     0    0.00000    0   18    2.34294    0.00000   100%     -    0s
         0     0    0.00000    0   18    2.34294    0.00000   100%     -    0s
         0     0    0.00000    0   24    2.34294    0.00000   100%     -    0s
         0     0    0.00000    0   20    2.34294    0.00000   100%     -    0s
         0     0    0.00000    0   22    2.34294    0.00000   100%     -    0s
         0     0    0.00000    0   22    2.34294    0.00000   100%     -    0s
         0     0    0.00000    0   22    2.34294    0.00000   100%     -    0s
         0     0    0.00000    0   22    2.34294    0.00000   100%     -    0s
         0     0    0.00000    0   26    2.34294    0.00000   100%     -    0s
         0     0    0.00000    0   19    2.34294    0.00000   100%     -    0s
         0     0    0.00000    0   24    2.34294    0.00000   100%     -    0s
         0     0    0.00000    0   22    2.34294    0.00000   100%     -    0s
         0     0    0.00000    0   24    2.34294    0.00000   100%     -    0s
         0     0    0.00000    0   18    2.34294    0.00000   100%     -    0s
         0     0    0.00000    0   24    2.34294    0.00000   100%     -    0s
         0     0    0.00000    0   18    2.34294    0.00000   100%     -    0s
         0     0    0.00000    0   20    2.34294    0.00000   100%     -    0s
         0     0    0.00000    0   20    2.34294    0.00000   100%     -    0s
         0     0    0.00000    0   22    2.34294    0.00000   100%     -    0s
         0     0    0.00000    0   18    2.34294    0.00000   100%     -    0s
         0     0    0.00000    0   18    2.34294    0.00000   100%     -    0s
         0     0    0.00000    0   18    2.34294    0.00000   100%     -    0s
         0     0    0.00000    0   22    2.34294    0.00000   100%     -    0s
         0     0    0.00000    0   18    2.34294    0.00000   100%     -    0s
         0     0    0.00000    0   20    2.34294    0.00000   100%     -    0s
         0     0    0.00000    0   20    2.34294    0.00000   100%     -    0s
         0     0    0.00000    0   20    2.34294    0.00000   100%     -    0s
         0     0    0.00000    0   20    2.34294    0.00000   100%     -    0s
         0     0    0.00000    0   22    2.34294    0.00000   100%     -    0s
         0     0    0.00000    0   20    2.34294    0.00000   100%     -    0s
         0     0    0.00000    0   25    2.34294    0.00000   100%     -    0s
         0     0    0.00000    0   22    2.34294    0.00000   100%     -    0s
         0     0    0.00000    0   19    2.34294    0.00000   100%     -    0s
         0     0    0.00000    0   16    2.34294    0.00000   100%     -    0s
         0     0    0.00000    0   12    2.34294    0.00000   100%     -    0s
         0     0    0.00000    0   10    2.34294    0.00000   100%     -    0s
         0     0    0.00000    0   16    2.34294    0.00000   100%     -    0s
         0     0    0.00000    0   16    2.34294    0.00000   100%     -    0s
         0     0    0.00000    0   20    2.34294    0.00000   100%     -    0s
         0     0    0.00000    0   20    2.34294    0.00000   100%     -    0s
         0     0    0.00000    0   16    2.34294    0.00000   100%     -    0s
         0     0    0.00000    0    8    2.34294    0.00000   100%     -    0s
         0     0    0.00000    0   22    2.34294    0.00000   100%     -    0s
         0     0    0.00000    0   22    2.34294    0.00000   100%     -    0s
         0     0    0.00000    0   18    2.34294    0.00000   100%     -    0s
         0     0    0.00000    0   18    2.34294    0.00000   100%     -    0s
         0     0    0.00000    0   18    2.34294    0.00000   100%     -    0s
         0     0    0.00000    0   18    2.34294    0.00000   100%     -    0s
         0     0    0.00000    0   20    2.34294    0.00000   100%     -    0s
         0     0    0.00000    0   20    2.34294    0.00000   100%     -    0s
         0     0    0.00000    0   18    2.34294    0.00000   100%     -    0s
         0     0    0.00000    0   16    2.34294    0.00000   100%     -    0s
         0     0    0.00000    0   18    2.34294    0.00000   100%     -    0s
         0     0    0.00000    0   14    2.34294    0.00000   100%     -    0s
         0     0    0.00000    0   20    2.34294    0.00000   100%     -    0s
         0     0    0.00000    0   20    2.34294    0.00000   100%     -    0s
         0     0    0.00000    0   22    2.34294    0.00000   100%     -    0s
         0     0    0.00000    0   20    2.34294    0.00000   100%     -    0s
         0     0    0.00000    0   20    2.34294    0.00000   100%     -    0s
         0     0    0.00000    0   20    2.34294    0.00000   100%     -    0s
         0     0    0.00000    0   22    2.34294    0.00000   100%     -    0s
         0     0    0.00000    0   22    2.34294    0.00000   100%     -    0s
         0     0    0.00000    0   22    2.34294    0.00000   100%     -    0s
         0     0    0.00000    0   18    2.34294    0.00000   100%     -    0s
         0     0    0.00000    0   18    2.34294    0.00000   100%     -    0s
         0     0    0.00000    0   18    2.34294    0.00000   100%     -    0s
         0     0    0.00000    0   22    2.34294    0.00000   100%     -    0s
         0     0    0.00000    0   22    2.34294    0.00000   100%     -    0s
         0     0    0.00000    0   24    2.34294    0.00000   100%     -    0s
         0     0    0.00000    0   21    2.34294    0.00000   100%     -    0s
         0     0    0.00000    0   28    2.34294    0.00000   100%     -    0s
         0     0    0.00000    0   24    2.34294    0.00000   100%     -    0s
         0     0    0.00000    0   22    2.34294    0.00000   100%     -    0s
         0     0    0.00000    0   22    2.34294    0.00000   100%     -    0s
         0     0    0.00000    0   22    2.34294    0.00000   100%     -    0s
         0     0    0.00000    0   20    2.34294    0.00000   100%     -    0s
         0     0    0.00000    0   22    2.34294    0.00000   100%     -    0s
         0     0    0.00000    0   22    2.34294    0.00000   100%     -    0s
         0     0    0.00000    0   22    2.34294    0.00000   100%     -    0s
         0     0    0.00000    0   12    2.34294    0.00000   100%     -    0s
         0     0    0.00000    0   26    2.34294    0.00000   100%     -    0s
         0     0    0.00000    0   24    2.34294    0.00000   100%     -    0s
         0     0    0.00000    0   26    2.34294    0.00000   100%     -    0s
         0     0    0.00000    0   26    2.34294    0.00000   100%     -    0s
         0     0    0.00000    0   24    2.34294    0.00000   100%     -    0s
         0     0    0.00000    0   17    2.34294    0.00000   100%     -    0s
         0     0    0.00000    0   22    2.34294    0.00000   100%     -    0s
         0     0    0.00000    0   21    2.34294    0.00000   100%     -    0s
         0     0    0.00000    0   25    2.34294    0.00000   100%     -    0s
         0     0    0.00000    0   22    2.34294    0.00000   100%     -    0s
         0     0    0.00000    0   23    2.34294    0.00000   100%     -    0s
         0     0    0.00000    0   13    2.34294    0.00000   100%     -    0s
         0     0    0.00000    0   24    2.34294    0.00000   100%     -    0s
         0     0    0.00000    0   24    2.34294    0.00000   100%     -    0s
         0     0    0.00000    0   22    2.34294    0.00000   100%     -    0s
         0     0    0.00000    0   14    2.34294    0.00000   100%     -    0s
         0     0    0.00000    0   21    2.34294    0.00000   100%     -    0s
         0     0    0.00000    0   20    2.34294    0.00000   100%     -    0s
         0     0    0.00000    0   20    2.34294    0.00000   100%     -    0s
         0     0    0.00000    0   18    2.34294    0.00000   100%     -    0s
         0     0    0.00000    0   22    2.34294    0.00000   100%     -    0s
         0     0    0.00000    0   22    2.34294    0.00000   100%     -    0s
         0     0    0.00000    0   22    2.34294    0.00000   100%     -    0s
         0     0    0.00000    0   22    2.34294    0.00000   100%     -    0s
         0     0    0.00000    0   24    2.34294    0.00000   100%     -    0s
         0     0    0.00000    0   22    2.34294    0.00000   100%     -    0s
         0     0    0.00000    0   30    2.34294    0.00000   100%     -    0s
         0     0    0.00000    0   22    2.34294    0.00000   100%     -    0s
         0     0    0.00000    0   22    2.34294    0.00000   100%     -    0s
         0     0    0.00000    0   20    2.34294    0.00000   100%     -    0s
         0     0    0.00000    0   24    2.34294    0.00000   100%     -    0s
         0     0    0.00000    0   22    2.34294    0.00000   100%     -    0s
         0     0    0.00000    0   26    2.34294    0.00000   100%     -    0s
         0     0    0.00000    0   22    2.34294    0.00000   100%     -    0s
         0     2    0.00000    0   22    2.34294    0.00000   100%     -    1s
    H   11    11                       2.2651423    0.00000   100%  49.1    1s
    H   50    36                       2.0776859    0.00000   100%  32.5    1s
    H  104    66                       1.9760028    0.00000   100%  32.3    1s
    H  181    89                       1.9760028    0.00000   100%  35.6    1s
    H  239   112                       1.9203800    0.00000   100%  39.4    1s
    H  301   138                       1.9203800    0.00000   100%  42.4    1s
    H  313   145                       1.8268499    0.00000   100%  46.4    1s
    H  332   160                       1.8174124    0.00000   100%  45.6    1s
    H  357   169                       1.7051120    0.00000   100%  43.7    1s
    H  362   161                       1.6090652    0.00000   100%  43.5    1s
    H  370   163                       1.6090651    0.00000   100%  44.2    1s
    H  376   169                       1.6090651    0.00000   100%  45.6    1s
    H  553   208                       1.5598095    0.00000   100%  73.2    4s
    H  558   195                       1.5598090    0.00010   100%  73.3    4s
    H  560   188                       1.5598089    0.00010   100%  74.2    4s
    H  795   220                       1.5370007    0.02521  98.4%  75.0    4s
       963   288    0.82911   26   33    1.53700    0.11569  92.5%  75.7    5s
    H 2960   677                       1.5356320    0.69536  54.7%  66.3    8s
    H 3604   727                       1.5356310    0.80867  47.3%  63.6    9s
    H 3654   728                       1.5356309    0.81334  47.0%  63.4    9s
    H 3715   730                       1.5250541    0.82288  46.0%  63.1    9s
    H 3716   731                       1.5250541    0.82288  46.0%  63.1    9s
    H 3759   719                       1.4969400    0.83408  44.3%  63.0    9s
    H 3796   723                       1.4969397    0.83716  44.1%  63.0    9s
    H 3842   728                       1.4969397    0.84397  43.6%  62.9    9s
      4280   732    0.97661   27   23    1.49694    0.91178  39.1%  60.7   10s
    
    Cutting planes:
      Gomory: 3
      Implied bound: 14
      Flow cover: 11
      RLT: 2
      Relax-and-lift: 1
    
    Explored 6947 nodes (397526 simplex iterations) in 13.42 seconds (12.89 work units)
    Thread count was 1 (of 96 available processors)
    
    Solution count 10: 1.49694 1.52505 1.53563 ... 1.92038
    
    Optimal solution found (tolerance 1.00e-06)
    Best objective 1.496939668582e+00, best bound 1.496939668582e+00, gap 0.0000%
    
    User-callback calls 7074, time in user-callback 0.00 sec

... Solving fixed model...

    Gurobi Optimizer version 13.0.0 build v13.0.0rc1 (linux64 - "Oracle Linux Server 9.7")
    
    CPU model: AMD EPYC 7643 48-Core Processor, instruction set [SSE2|AVX|AVX2]
    Thread count: 48 physical cores, 96 logical processors, using up to 1 threads
    
    Non-default parameters:
    TimeLimit  300
    MIPGap  1e-06
    LogToConsole  0
    NonConvex  2
    Threads  1
    
    Optimize a model with 739 rows, 408 columns and 1686 nonzeros (Min)
    Model fingerprint: 0xcc6a4a67
    Model has 16 linear objective coefficients
    Model has 64 quadratic constraints
    Coefficient statistics:
      Matrix range     [1e+00, 6e+01]
      QMatrix range    [4e-02, 2e+00]
      Objective range  [1e+00, 1e+00]
      Bounds range     [1e+00, 6e+01]
      RHS range        [1e+00, 1e+00]
    Presolve removed 736 rows and 384 columns
    Presolve time: 0.00s
    Presolved: 64 rows, 80 columns, 155 nonzeros
    Presolved model has 16 second-order cone constraints
    Ordering time: 0.00s
    
    Barrier statistics:
     AA' NZ     : 4.410e+02
     Factor NZ  : 6.920e+02
     Factor Ops : 1.060e+04 (less than 1 second per iteration)
     Threads    : 1
    
                      Objective                Residual
    Iter       Primal          Dual         Primal    Dual     Compl     Time
       0   5.47859678e+02 -2.79269653e+02  7.63e+00 3.54e+00  8.64e+00     0s
       1   3.23796631e+01 -4.88764132e+01  8.39e-06 3.89e-06  7.32e-01     0s
       2   2.55116976e+00 -8.16951760e+00  3.49e-07 7.09e-07  9.66e-02     0s
       3   1.98438905e+00  2.52503687e-01  3.46e-10 5.74e-08  1.56e-02     0s
       4   1.51394520e+00  1.41265963e+00  1.10e-12 3.43e-09  9.12e-04     0s
       5   1.49858848e+00  1.48323078e+00  1.18e-13 5.88e-10  1.38e-04     0s
       6   1.49700998e+00  1.49516260e+00  1.93e-12 6.72e-11  1.66e-05     0s
       7   1.49694479e+00  1.49689615e+00  3.54e-11 8.32e-13  4.38e-07     0s
       8   1.49693996e+00  1.49693793e+00  7.21e-10 5.53e-13  1.83e-08     0s
    
    Barrier solved model in 8 iterations and 0.00 seconds (0.00 work units)
    Optimal objective 1.49693996e+00
    
    
    User-callback calls 0, time in user-callback 0.00 sec
    Warning: to get QCP duals, please set parameter QCPDual to 1

--- Reading solution for model GAMS_MODEL
***
*** Solver did not provide marginals for model GAMS_MODEL
***
--- Executing after solve: elapsed 0:00:13.470
--- model.gms(2669) 3 Mb
--- model.gms(3932) 5 Mb
--- Putfile results /local/scratch/a/sgusev/repos/k_means/data/gams_gurobi_gdp.hull_exact/no_mode/2026-02-14_22-10-48/original/results.dat
--- Putfile statresults /local/scratch/a/sgusev/repos/k_means/data/gams_gurobi_gdp.hull_exact/no_mode/2026-02-14_22-10-48/original/resultsstat.dat
*** Status: Normal completion
--- Job model.gms Stop 02/14/26 22:11:02 elapsed 0:00:13.472
Original problem solved. Time taken: 14.072361946105957 seconds
Original objective value: 1.4969399556376861
